\ Model LP: ACOPF
\ LP format - for model browsing. Use MPS format to capture full model detail.
Minimize
  400 obj_vars[1,0] + 400 obj_vars[1,1] + 400 obj_vars[1,2]
   + 400 obj_vars[1,3] + 100 obj_vars[5,0] + 100 obj_vars[5,1]
   + 100 obj_vars[5,2] + 100 obj_vars[5,3] + 1000 pn_viol_l[1]
   + 1000 pn_viol_l[2] + 1000 pn_viol_l[3] + 1000 pn_viol_l[4]
   + 1000 pn_viol_l[5] + 1000 pn_viol_u[1] + 1000 pn_viol_u[2]
   + 1000 pn_viol_u[3] + 1000 pn_viol_u[4] + 1000 pn_viol_u[5]
   + 5000 qn_viol_l[1] + 5000 qn_viol_l[2] + 5000 qn_viol_l[3]
   + 5000 qn_viol_l[4] + 5000 qn_viol_l[5] + 5000 qn_viol_u[1]
   + 5000 qn_viol_u[2] + 5000 qn_viol_u[3] + 5000 qn_viol_u[4]
   + 5000 qn_viol_u[5] + 6000 vn_viol_l[1] + 6000 vn_viol_l[2]
   + 6000 vn_viol_l[3] + 6000 vn_viol_l[4] + 6000 vn_viol_l[5]
   + 6000 vn_viol_u[1] + 6000 vn_viol_u[2] + 6000 vn_viol_u[3]
   + 6000 vn_viol_u[4] + 6000 vn_viol_u[5] + 10000 ik_viol_u[1,2]
   + 10000 ik_viol_u[1,3] + 10000 ik_viol_u[2,3] + 10000 ik_viol_u[2,4]
   + 10000 ik_viol_u[3,5] + 10000 ik_viol_u[4,5] + 10000 ik_viol_u[2,1]
   + 10000 ik_viol_u[3,1] + 10000 ik_viol_u[3,2] + 10000 ik_viol_u[4,2]
   + 10000 ik_viol_u[5,3] + 10000 ik_viol_u[5,4]
Subject To
 R0: obj_vars[1,0] <= 12.5
 R1: obj_vars[1,1] <= 12.5
 R2: obj_vars[1,2] <= 12.5
 R3: obj_vars[1,3] <= 12.5
 R4: - obj_vars[1,0] - obj_vars[1,1] - obj_vars[1,2] - obj_vars[1,3]
   + p_n[1] = 0
 R5: obj_vars[5,0] <= 12.5
 R6: obj_vars[5,1] <= 12.5
 R7: obj_vars[5,2] <= 12.5
 R8: obj_vars[5,3] <= 12.5
 R9: - obj_vars[5,0] - obj_vars[5,1] - obj_vars[5,2] - obj_vars[5,3]
   + p_n[5] = 0
 R10: 4.123711340206186 v_n_r[1] - 4.123711340206186 v_n_r[2]
   + 9.278350515463918 v_n_j[1] - 9.278350515463918 v_n_j[2] - i_k_r[1,2]
   = 0
 R11: - 9.278350515463918 v_n_r[1] + 9.278350515463918 v_n_r[2]
   + 4.123711340206186 v_n_j[1] - 4.123711340206186 v_n_j[2] - i_k_j[1,2]
   = 0
 R12: - 4.123711340206186 v_n_r[1] + 4.123711340206186 v_n_r[2]
   - 9.278350515463918 v_n_j[1] + 9.278350515463918 v_n_j[2] - i_k_r[2,1]
   = 0
 R13: 9.278350515463918 v_n_r[1] - 9.278350515463918 v_n_r[2]
   - 4.123711340206186 v_n_j[1] + 4.123711340206186 v_n_j[2] - i_k_j[2,1]
   = 0
 R14: 19.23076923076923 v_n_r[1] - 19.23076923076923 v_n_r[3]
   + 3.846153846153845 v_n_j[1] - 3.846153846153845 v_n_j[3] - i_k_r[1,3]
   = 0
 R15: - 3.846153846153845 v_n_r[1] + 3.846153846153845 v_n_r[3]
   + 19.23076923076923 v_n_j[1] - 19.23076923076923 v_n_j[3] - i_k_j[1,3]
   = 0
 R16: - 19.23076923076923 v_n_r[1] + 19.23076923076923 v_n_r[3]
   - 3.846153846153845 v_n_j[1] + 3.846153846153845 v_n_j[3] - i_k_r[3,1]
   = 0
 R17: 3.846153846153845 v_n_r[1] - 3.846153846153845 v_n_r[3]
   - 19.23076923076923 v_n_j[1] + 19.23076923076923 v_n_j[3] - i_k_j[3,1]
   = 0
 R18: 5.384615384615385 v_n_r[2] - 5.384615384615385 v_n_r[3]
   + 6.923076923076922 v_n_j[2] - 6.923076923076922 v_n_j[3] - i_k_r[2,3]
   = 0
 R19: - 6.923076923076922 v_n_r[2] + 6.923076923076922 v_n_r[3]
   + 5.384615384615385 v_n_j[2] - 5.384615384615385 v_n_j[3] - i_k_j[2,3]
   = 0
 R20: - 5.384615384615385 v_n_r[2] + 5.384615384615385 v_n_r[3]
   - 6.923076923076922 v_n_j[2] + 6.923076923076922 v_n_j[3] - i_k_r[3,2]
   = 0
 R21: 6.923076923076922 v_n_r[2] - 6.923076923076922 v_n_r[3]
   - 5.384615384615385 v_n_j[2] + 5.384615384615385 v_n_j[3] - i_k_j[3,2]
   = 0
 R22: 0.4943820224719102 v_n_r[2] - 0.4943820224719102 v_n_r[4]
   + 0.5839887640449438 v_n_j[2] - 0.8089887640449438 v_n_j[4] - i_k_r[2,4]
   = 0
 R23: - 0.5839887640449438 v_n_r[2] + 0.8089887640449438 v_n_r[4]
   + 0.4943820224719102 v_n_j[2] - 0.4943820224719102 v_n_j[4] - i_k_j[2,4]
   = 0
 R24: - 0.4943820224719102 v_n_r[2] + 0.4943820224719102 v_n_r[4]
   - 0.8089887640449438 v_n_j[2] + 0.5839887640449438 v_n_j[4] - i_k_r[4,2]
   = 0
 R25: 0.8089887640449438 v_n_r[2] - 0.5839887640449438 v_n_r[4]
   - 0.4943820224719102 v_n_j[2] + 0.4943820224719102 v_n_j[4] - i_k_j[4,2]
   = 0
 R26: 0.4943820224719102 v_n_r[3] - 0.4943820224719102 v_n_r[5]
   + 0.5839887640449438 v_n_j[3] - 0.8089887640449438 v_n_j[5] - i_k_r[3,5]
   = 0
 R27: - 0.5839887640449438 v_n_r[3] + 0.8089887640449438 v_n_r[5]
   + 0.4943820224719102 v_n_j[3] - 0.4943820224719102 v_n_j[5] - i_k_j[3,5]
   = 0
 R28: - 0.4943820224719102 v_n_r[3] + 0.4943820224719102 v_n_r[5]
   - 0.8089887640449438 v_n_j[3] + 0.5839887640449438 v_n_j[5] - i_k_r[5,3]
   = 0
 R29: 0.8089887640449438 v_n_r[3] - 0.5839887640449438 v_n_r[5]
   - 0.4943820224719102 v_n_j[3] + 0.4943820224719102 v_n_j[5] - i_k_j[5,3]
   = 0
 R30: 4.411764705882352 v_n_r[4] - 4.411764705882352 v_n_r[5]
   + 7.352941176470588 v_n_j[4] - 7.352941176470588 v_n_j[5] - i_k_r[4,5]
   = 0
 R31: - 7.352941176470588 v_n_r[4] + 7.352941176470588 v_n_r[5]
   + 4.411764705882352 v_n_j[4] - 4.411764705882352 v_n_j[5] - i_k_j[4,5]
   = 0
 R32: - 4.411764705882352 v_n_r[4] + 4.411764705882352 v_n_r[5]
   - 7.352941176470588 v_n_j[4] + 7.352941176470588 v_n_j[5] - i_k_r[5,4]
   = 0
 R33: 7.352941176470588 v_n_r[4] - 7.352941176470588 v_n_r[5]
   - 4.411764705882352 v_n_j[4] + 4.411764705882352 v_n_j[5] - i_k_j[5,4]
   = 0
 R34: - i_n_r[1] + i_k_r[1,2] + i_k_r[1,3] = 0
 R35: - i_n_j[1] + i_k_j[1,2] + i_k_j[1,3] = 0
 R36: - i_n_r[2] + i_k_r[2,3] + i_k_r[2,4] + i_k_r[2,1] = 0
 R37: - i_n_j[2] + i_k_j[2,3] + i_k_j[2,4] + i_k_j[2,1] = 0
 R38: - i_n_r[3] + i_k_r[3,5] + i_k_r[3,1] + i_k_r[3,2] = 0
 R39: - i_n_j[3] + i_k_j[3,5] + i_k_j[3,1] + i_k_j[3,2] = 0
 R40: - i_n_r[4] + i_k_r[4,5] + i_k_r[4,2] = 0
 R41: - i_n_j[4] + i_k_j[4,5] + i_k_j[4,2] = 0
 R42: - i_n_r[5] + i_k_r[5,3] + i_k_r[5,4] = 0
 R43: - i_n_j[5] + i_k_j[5,3] + i_k_j[5,4] = 0
 R44: v_n_r[1] >= -1.1
 R45: v_n_r[2] >= -1.1
 R46: v_n_r[3] >= -1.1
 R47: v_n_r[4] >= -1.1
 R48: v_n_r[5] >= -1.1
 R49: v_n_r[1] <= 1.1
 R50: v_n_r[2] <= 1.1
 R51: v_n_r[3] <= 1.1
 R52: v_n_r[4] <= 1.1
 R53: v_n_r[5] <= 1.1
 R54: v_n_j[1] >= -1.1
 R55: v_n_j[2] >= -1.1
 R56: v_n_j[3] >= -1.1
 R57: v_n_j[4] >= -1.1
 R58: v_n_j[5] >= -1.1
 R59: v_n_j[1] <= 1.1
 R60: v_n_j[2] <= 1.1
 R61: v_n_j[3] <= 1.1
 R62: v_n_j[4] <= 1.1
 R63: v_n_j[5] <= 1.1
 R64: i_k_r[1,2] >= -25
 R65: i_k_r[2,1] >= -25
 R66: i_k_r[1,2] <= 25
 R67: i_k_r[2,1] <= 25
 R68: i_k_j[1,2] >= -25
 R69: i_k_j[2,1] >= -25
 R70: i_k_j[1,2] <= 25
 R71: i_k_j[2,1] <= 25
 R72: i_k_r[1,3] >= -25
 R73: i_k_r[3,1] >= -25
 R74: i_k_r[1,3] <= 25
 R75: i_k_r[3,1] <= 25
 R76: i_k_j[1,3] >= -25
 R77: i_k_j[3,1] >= -25
 R78: i_k_j[1,3] <= 25
 R79: i_k_j[3,1] <= 25
 R80: i_k_r[2,3] >= -25
 R81: i_k_r[3,2] >= -25
 R82: i_k_r[2,3] <= 25
 R83: i_k_r[3,2] <= 25
 R84: i_k_j[2,3] >= -25
 R85: i_k_j[3,2] >= -25
 R86: i_k_j[2,3] <= 25
 R87: i_k_j[3,2] <= 25
 R88: i_k_r[2,4] >= -25
 R89: i_k_r[4,2] >= -25
 R90: i_k_r[2,4] <= 25
 R91: i_k_r[4,2] <= 25
 R92: i_k_j[2,4] >= -25
 R93: i_k_j[4,2] >= -25
 R94: i_k_j[2,4] <= 25
 R95: i_k_j[4,2] <= 25
 R96: i_k_r[3,5] >= -25
 R97: i_k_r[5,3] >= -25
 R98: i_k_r[3,5] <= 25
 R99: i_k_r[5,3] <= 25
 R100: i_k_j[3,5] >= -25
 R101: i_k_j[5,3] >= -25
 R102: i_k_j[3,5] <= 25
 R103: i_k_j[5,3] <= 25
 R104: i_k_r[4,5] >= -25
 R105: i_k_r[5,4] >= -25
 R106: i_k_r[4,5] <= 25
 R107: i_k_r[5,4] <= 25
 R108: i_k_j[4,5] >= -25
 R109: i_k_j[5,4] >= -25
 R110: i_k_j[4,5] <= 25
 R111: i_k_j[5,4] <= 25
 R112: - 2 v_n_r[1] + v_n_sq[1] = -1
 R113: - 2 v_n_r[2] + v_n_sq[2] = -1
 R114: - 2 v_n_r[3] + v_n_sq[3] = -1
 R115: - 2 v_n_r[4] + v_n_sq[4] = -1
 R116: - 2 v_n_r[5] + v_n_sq[5] = -1
 R117: p_n[1] - i_n_r[1] = 0
 R118: p_n[2] - i_n_r[2] = 1.3
 R119: p_n[3] - i_n_r[3] = 1.3
 R120: p_n[4] - i_n_r[4] = 0.65
 R121: p_n[5] - i_n_r[5] = 0
 R122: q_n[1] + i_n_j[1] = 0
 R123: q_n[2] + i_n_j[2] = 0.2
 R124: q_n[3] + i_n_j[3] = 0.2
 R125: q_n[4] + i_n_j[4] = 0.1
 R126: q_n[5] + i_n_j[5] = 0
 R127: i_k_sq[1,2] = 0
 R128: i_k_sq[1,3] = 0
 R129: i_k_sq[2,3] = 0
 R130: - 0.45 i_k_j[2,4] + i_k_sq[2,4] = -0.050625
 R131: - 0.45 i_k_j[3,5] + i_k_sq[3,5] = -0.050625
 R132: i_k_sq[4,5] = 0
 R133: i_k_sq[2,1] = 0
 R134: i_k_sq[3,1] = 0
 R135: i_k_sq[3,2] = 0
 R136: - 0.45 i_k_j[4,2] + i_k_sq[4,2] = -0.050625
 R137: - 0.45 i_k_j[5,3] + i_k_sq[5,3] = -0.050625
 R138: i_k_sq[5,4] = 0
 R139: p_n[1] - pn_viol_u[1] <= 50
 R140: p_n[2] - pn_viol_u[2] <= 0
 R141: p_n[3] - pn_viol_u[3] <= 0
 R142: p_n[4] - pn_viol_u[4] <= 0
 R143: p_n[5] - pn_viol_u[5] <= 50
 R144: p_n[1] + pn_viol_l[1] >= 0
 R145: p_n[2] + pn_viol_l[2] >= 0
 R146: p_n[3] + pn_viol_l[3] >= 0
 R147: p_n[4] + pn_viol_l[4] >= 0
 R148: p_n[5] + pn_viol_l[5] >= 0
 R149: q_n[1] - qn_viol_u[1] <= 18
 R150: q_n[2] - qn_viol_u[2] <= 0
 R151: q_n[3] - qn_viol_u[3] <= 0
 R152: q_n[4] - qn_viol_u[4] <= 0
 R153: q_n[5] - qn_viol_u[5] <= 18
 R154: q_n[1] + qn_viol_l[1] >= -0.3
 R155: q_n[2] + qn_viol_l[2] >= 0
 R156: q_n[3] + qn_viol_l[3] >= 0
 R157: q_n[4] + qn_viol_l[4] >= 0
 R158: q_n[5] + qn_viol_l[5] >= -0.3
 R159: v_n_sq[1] - vn_viol_u[1] <= 1.21
 R160: v_n_sq[2] - vn_viol_u[2] <= 1.21
 R161: v_n_sq[3] - vn_viol_u[3] <= 1.21
 R162: v_n_sq[4] - vn_viol_u[4] <= 1.21
 R163: v_n_sq[5] - vn_viol_u[5] <= 1.21
 R164: v_n_sq[1] - vn_viol_l[1] >= 0.9025
 R165: v_n_sq[2] - vn_viol_l[2] >= 0.9025
 R166: v_n_sq[3] - vn_viol_l[3] >= 0.9025
 R167: v_n_sq[4] - vn_viol_l[4] >= 0.9025
 R168: v_n_sq[5] - vn_viol_l[5] >= 0.9025
 R169: i_k_sq[1,2] - ik_viol_u[1,2] <= 625
 R170: i_k_sq[2,1] - ik_viol_u[2,1] <= 625
 R171: i_k_sq[1,3] - ik_viol_u[1,3] <= 625
 R172: i_k_sq[3,1] - ik_viol_u[3,1] <= 625
 R173: i_k_sq[2,3] - ik_viol_u[2,3] <= 625
 R174: i_k_sq[3,2] - ik_viol_u[3,2] <= 625
 R175: i_k_sq[2,4] - ik_viol_u[2,4] <= 625
 R176: i_k_sq[4,2] - ik_viol_u[4,2] <= 625
 R177: i_k_sq[3,5] - ik_viol_u[3,5] <= 625
 R178: i_k_sq[5,3] - ik_viol_u[5,3] <= 625
 R179: i_k_sq[4,5] - ik_viol_u[4,5] <= 625
 R180: i_k_sq[5,4] - ik_viol_u[5,4] <= 625
Bounds
 p_n[1] free
 p_n[2] free
 p_n[3] free
 p_n[4] free
 p_n[5] free
 q_n[1] free
 q_n[2] free
 q_n[3] free
 q_n[4] free
 q_n[5] free
 v_n_r[1] free
 v_n_r[2] free
 v_n_r[3] free
 v_n_r[4] free
 v_n_r[5] free
 v_n_j[1] free
 v_n_j[2] free
 v_n_j[3] free
 v_n_j[4] free
 v_n_j[5] free
 v_n_sq[1] free
 v_n_sq[2] free
 v_n_sq[3] free
 v_n_sq[4] free
 v_n_sq[5] free
 i_n_r[1] free
 i_n_r[2] free
 i_n_r[3] free
 i_n_r[4] free
 i_n_r[5] free
 i_n_j[1] free
 i_n_j[2] free
 i_n_j[3] free
 i_n_j[4] free
 i_n_j[5] free
 i_k_r[1,2] free
 i_k_r[1,3] free
 i_k_r[2,3] free
 i_k_r[2,4] free
 i_k_r[3,5] free
 i_k_r[4,5] free
 i_k_r[2,1] free
 i_k_r[3,1] free
 i_k_r[3,2] free
 i_k_r[4,2] free
 i_k_r[5,3] free
 i_k_r[5,4] free
 i_k_j[1,2] free
 i_k_j[1,3] free
 i_k_j[2,3] free
 i_k_j[2,4] free
 i_k_j[3,5] free
 i_k_j[4,5] free
 i_k_j[2,1] free
 i_k_j[3,1] free
 i_k_j[3,2] free
 i_k_j[4,2] free
 i_k_j[5,3] free
 i_k_j[5,4] free
 i_k_sq[1,2] free
 i_k_sq[1,3] free
 i_k_sq[2,3] free
 i_k_sq[2,4] free
 i_k_sq[3,5] free
 i_k_sq[4,5] free
 i_k_sq[2,1] free
 i_k_sq[3,1] free
 i_k_sq[3,2] free
 i_k_sq[4,2] free
 i_k_sq[5,3] free
 i_k_sq[5,4] free
End
